c b=4,c=1033
p cnf 18 44
1 4 -8 0
4 -11 0
4 -18 0
1 -4 8 0
1 -4 11 0
-4 18 0
3 -7 0
1 3 -10 0
3 -17 0
-3 7 0
1 -3 10 0
-3 17 0
2 -6 0
1 2 -9 0
2 -16 0
-2 6 0
1 -2 9 0
-2 16 0
1 -5 0
1 -12 0
1 -15 0
-1 4 8 0
2 4 -9 0
-1 -4 -8 0
-1 2 -4 9 0
2 -4 11 0
2 3 -10 0
2 -3 10 0
2 -12 0
-2 4 9 0
3 4 -10 0
-1 -2 -4 -9 0
-1 -2 3 -4 10 0
3 -4 11 0
3 -12 0
-3 4 10 0
4 -12 0
-1 -2 -3 -4 -10 0
-1 -2 -3 -4 12 0
-1 -2 -3 -11 0
-1 5 0
-1 15 0
-13 0
-14 0
